clingo version 5.4.0
Reading from merger/Adrian/merge.lp ...
Solving...
Answer: 1
occurs(object(robot,1),action(move,(0,-1)),1). occurs(object(robot,1),action(move,(1,0)),2). occurs(object(robot,2),action(move,(0,1)),1). occurs(object(robot,2),action(move,(0,1)),2). occurs(object(robot,2),action(move,(0,1)),3). occurs(object(robot,2),action(move,(0,1)),4). occurs(object(robot,1),action(move,(-1,0)),3). occurs(object(robot,1),action(move,(1,0)),4).
Optimization: 1
OPTIMUM FOUND

Models       : 1
  Optimum    : yes
Optimization : 1
Calls        : 1
Time         : 0.047s (Solving: 0.00s 1st Model: 0.00s Unsat: 0.00s)
CPU Time     : 0.014s
